p cnf 13 49
4 -11 -13 0
-2 -4 -11 0
2 4 11 0
1 3 -8 0
6 -8 -12 0
1 -4 6 0
1 4 11 0
4 -11 -12 0
4 10 11 0
-5 12 13 0
-2 -3 -12 0
1 2 12 0
-3 4 -6 0
5 -6 12 0
4 -7 -8 0
5 -8 -9 0
-2 -10 13 0
-6 -8 10 0
1 -5 -7 0
2 3 13 0
-2 12 13 0
-6 -8 -12 0
11 -12 13 0
-6 -7 -9 0
-4 -6 10 0
-5 -6 -9 0
-2 -4 -12 0
3 -4 -11 0
-1 -6 -11 0
-2 3 13 0
-6 -7 -12 0
-4 6 7 0
-2 4 12 0
4 -5 8 0
-2 -12 -13 0
1 -2 -5 0
6 -8 11 0
9 11 13 0
7 8 -12 0
5 -7 12 0
4 -5 -9 0
5 -7 10 0
4 5 -8 0
-4 -5 -12 0
2 5 13 0
-6 8 -12 0
-6 -8 -9 0
3 -5 -9 0
-2 -7 -10 0
